NAME : prob35c
TYPE : PDTSP
DIMENSION : 71
EDGE_WEIGHT_TYPE : EUC_2D
NODE_COORD_SECTION
1 1 907
2 233 465
3 913 187
4 884 40
5 244 801
6 601 316
7 790 934
8 210 761
9 722 252
10 979 717
11 441 942
12 417 770
13 541 583
14 376 639
15 346 149
16 594 364
17 314 498
18 75 31
19 846 35
20 389 569
21 472 138
22 969 601
23 541 746
24 164 132
25 420 988
26 807 50
27 234 146
28 641 376
29 527 720
30 305 548
31 145 996
32 71 377
33 629 89
34 771 882
35 388 616
36 833 793
37 791 396
38 154 22
39 737 353
40 241 657
41 315 904
42 178 803
43 501 116
44 264 650
45 609 793
46 550 68
47 952 21
48 792 670
49 372 927
50 54 863
51 88 960
52 78 9
53 678 713
54 719 248
55 721 494
56 987 75
57 1 833
58 138 834
59 763 29
60 714 401
61 881 452
62 463 452
63 343 678
64 723 635
65 961 822
66 544 214
67 879 548
68 746 292
69 367 837
70 182 833
71 493 453
PICKUP_AND_DELIVERY_SECTION
1 0 0 0 0 0 0
2 0 0 0 0 37 0
3 0 0 0 0 38 0
4 0 0 0 0 39 0
5 0 0 0 0 40 0
6 0 0 0 0 41 0
7 0 0 0 0 42 0
8 0 0 0 0 43 0
9 0 0 0 0 44 0
10 0 0 0 0 45 0
11 0 0 0 0 46 0
12 0 0 0 0 47 0
13 0 0 0 0 48 0
14 0 0 0 0 49 0
15 0 0 0 0 50 0
16 0 0 0 0 51 0
17 0 0 0 0 52 0
18 0 0 0 0 53 0
19 0 0 0 0 54 0
20 0 0 0 0 55 0
21 0 0 0 0 56 0
22 0 0 0 0 57 0
23 0 0 0 0 58 0
24 0 0 0 0 59 0
25 0 0 0 0 60 0
26 0 0 0 0 61 0
27 0 0 0 0 62 0
28 0 0 0 0 63 0
29 0 0 0 0 64 0
30 0 0 0 0 65 0
31 0 0 0 0 66 0
32 0 0 0 0 67 0
33 0 0 0 0 68 0
34 0 0 0 0 69 0
35 0 0 0 0 70 0
36 0 0 0 0 71 0
37 0 0 0 0 0 2
38 0 0 0 0 0 3
39 0 0 0 0 0 4
40 0 0 0 0 0 5
41 0 0 0 0 0 6
42 0 0 0 0 0 7
43 0 0 0 0 0 8
44 0 0 0 0 0 9
45 0 0 0 0 0 10
46 0 0 0 0 0 11
47 0 0 0 0 0 12
48 0 0 0 0 0 13
49 0 0 0 0 0 14
50 0 0 0 0 0 15
51 0 0 0 0 0 16
52 0 0 0 0 0 17
53 0 0 0 0 0 18
54 0 0 0 0 0 19
55 0 0 0 0 0 20
56 0 0 0 0 0 21
57 0 0 0 0 0 22
58 0 0 0 0 0 23
59 0 0 0 0 0 24
60 0 0 0 0 0 25
61 0 0 0 0 0 26
62 0 0 0 0 0 27
63 0 0 0 0 0 28
64 0 0 0 0 0 29
65 0 0 0 0 0 30
66 0 0 0 0 0 31
67 0 0 0 0 0 32
68 0 0 0 0 0 33
69 0 0 0 0 0 34
70 0 0 0 0 0 35
71 0 0 0 0 0 36
DEPOT_SECTION
1 
-1
EOF
